language Essence 1.3

letting class be function(1 --> 5, 2 --> 5, 3 --> 3, 4 --> 2, 5 --> 4, 6 --> 5, 7 --> 5, 8 --> 1)
letting deck_length be 27
letting deck_width be 50
letting length be function(1 --> 18, 2 --> 13, 3 --> 15, 4 --> 8, 5 --> 17, 6 --> 27, 7 --> 18, 8 --> 27)
letting n_classes be 5
letting n_containers be 8
letting separation be function({3, 5} --> 18)
letting width be function(1 --> 8, 2 --> 2, 3 --> 1, 4 --> 1, 5 --> 3, 6 --> 30, 7 --> 1, 8 --> 4)
